HUN,8,6,601
3,7,5,12,2,4,4,20,1,19,0,18
0,19,5,23,1,24,4,24,3,4,2,23
1,11,2,27,4,12,5,2,3,29,0,24
5,1,0,23,4,5,3,6,2,14,1,12
2,5,0,24,1,22,5,16,4,11,3,28
2,7,5,21,1,25,3,8,0,4,4,2
3,4,5,24,1,28,2,28,0,8,4,13
0,2,3,11,5,21,4,22,1,18,2,12
